c nIsolatedPIs 8
c maxPI 56
p cnf 217 484
c gate 57 -24 -52 0
-24 -57 0
-52 -57 0
24 52 57 0
c gate 58 23 51 0
23 -58 0
51 -58 0
-23 -51 58 0
c gate 59 24 52 0
24 -59 0
52 -59 0
-24 -52 59 0
c gate 60 -58 -59 0
-58 -60 0
-59 -60 0
58 59 60 0
c gate 61 22 50 0
22 -61 0
50 -61 0
-22 -50 61 0
c gate 62 21 49 0
21 -62 0
49 -62 0
-21 -49 62 0
c gate 63 -61 -62 0
-61 -63 0
-62 -63 0
61 62 63 0
c gate 64 -22 -50 0
-22 -64 0
-50 -64 0
22 50 64 0
c gate 65 -23 -51 0
-23 -65 0
-51 -65 0
23 51 65 0
c gate 66 -64 -65 0
-64 -66 0
-65 -66 0
64 65 66 0
c gate 67 -63 66 0
-63 -67 0
66 -67 0
63 -66 67 0
c gate 68 60 -67 0
60 -68 0
-67 -68 0
-60 67 68 0
c gate 69 -57 -68 0
-57 -69 0
-68 -69 0
57 68 69 0
c gate 70 -27 -55 0
-27 -70 0
-55 -70 0
27 55 70 0
c gate 71 27 55 0
27 -71 0
55 -71 0
-27 -55 71 0
c gate 72 -70 -71 0
-70 -72 0
-71 -72 0
70 71 72 0
c gate 73 -26 -54 0
-26 -73 0
-54 -73 0
26 54 73 0
c gate 74 26 54 0
26 -74 0
54 -74 0
-26 -54 74 0
c gate 75 -73 -74 0
-73 -75 0
-74 -75 0
73 74 75 0
c gate 76 72 75 0
72 -76 0
75 -76 0
-72 -75 76 0
c gate 77 28 -56 0
28 -77 0
-56 -77 0
-28 56 77 0
c gate 78 -28 56 0
-28 -78 0
56 -78 0
28 -56 78 0
c gate 79 -77 -78 0
-77 -79 0
-78 -79 0
77 78 79 0
c gate 80 25 -53 0
25 -80 0
-53 -80 0
-25 53 80 0
c gate 81 -25 53 0
-25 -81 0
53 -81 0
25 -53 81 0
c gate 82 -80 -81 0
-80 -82 0
-81 -82 0
80 81 82 0
c gate 83 -79 -82 0
-79 -83 0
-82 -83 0
79 82 83 0
c gate 84 76 83 0
76 -84 0
83 -84 0
-76 -83 84 0
c gate 85 69 84 0
69 -85 0
84 -85 0
-69 -84 85 0
c gate 86 -16 -44 0
-16 -86 0
-44 -86 0
16 44 86 0
c gate 87 16 44 0
16 -87 0
44 -87 0
-16 -44 87 0
c gate 88 15 43 0
15 -88 0
43 -88 0
-15 -43 88 0
c gate 89 -87 -88 0
-87 -89 0
-88 -89 0
87 88 89 0
c gate 90 -86 -89 0
-86 -90 0
-89 -90 0
86 89 90 0
c gate 91 -15 -43 0
-15 -91 0
-43 -91 0
15 43 91 0
c gate 92 -88 -91 0
-88 -92 0
-91 -92 0
88 91 92 0
c gate 93 -86 -87 0
-86 -93 0
-87 -93 0
86 87 93 0
c gate 94 -14 -42 0
-14 -94 0
-42 -94 0
14 42 94 0
c gate 95 93 -94 0
93 -95 0
-94 -95 0
-93 94 95 0
c gate 96 92 95 0
92 -96 0
95 -96 0
-92 -95 96 0
c gate 97 -90 -96 0
-90 -97 0
-96 -97 0
90 96 97 0
c gate 98 17 45 0
17 -98 0
45 -98 0
-17 -45 98 0
c gate 99 18 46 0
18 -99 0
46 -99 0
-18 -46 99 0
c gate 100 -98 -99 0
-98 -100 0
-99 -100 0
98 99 100 0
c gate 101 -20 -48 0
-20 -101 0
-48 -101 0
20 48 101 0
c gate 102 -17 -45 0
-17 -102 0
-45 -102 0
17 45 102 0
c gate 103 -101 -102 0
-101 -103 0
-102 -103 0
101 102 103 0
c gate 104 100 103 0
100 -104 0
103 -104 0
-100 -103 104 0
c gate 105 -18 -46 0
-18 -105 0
-46 -105 0
18 46 105 0
c gate 106 -19 -47 0
-19 -106 0
-47 -106 0
19 47 106 0
c gate 107 -105 -106 0
-105 -107 0
-106 -107 0
105 106 107 0
c gate 108 19 47 0
19 -108 0
47 -108 0
-19 -47 108 0
c gate 109 20 48 0
20 -109 0
48 -109 0
-20 -48 109 0
c gate 110 -108 -109 0
-108 -110 0
-109 -110 0
108 109 110 0
c gate 111 107 110 0
107 -111 0
110 -111 0
-107 -110 111 0
c gate 112 104 111 0
104 -112 0
111 -112 0
-104 -111 112 0
c gate 113 -97 112 0
-97 -113 0
112 -113 0
97 -112 113 0
c gate 114 13 41 0
13 -114 0
41 -114 0
-13 -41 114 0
c gate 115 14 42 0
14 -115 0
42 -115 0
-14 -42 115 0
c gate 116 -114 -115 0
-114 -116 0
-115 -116 0
114 115 116 0
c gate 117 12 40 0
12 -117 0
40 -117 0
-12 -40 117 0
c gate 118 11 39 0
11 -118 0
39 -118 0
-11 -39 118 0
c gate 119 -11 -39 0
-11 -119 0
-39 -119 0
11 39 119 0
c gate 120 10 38 0
10 -120 0
38 -120 0
-10 -38 120 0
c gate 121 9 37 0
9 -121 0
37 -121 0
-9 -37 121 0
c gate 122 -8 -36 0
-8 -122 0
-36 -122 0
8 36 122 0
c gate 123 -6 -34 0
-6 -123 0
-34 -123 0
6 34 123 0
c gate 124 -7 -35 0
-7 -124 0
-35 -124 0
7 35 124 0
c gate 125 -123 -124 0
-123 -125 0
-124 -125 0
123 124 125 0
c gate 126 5 33 0
5 -126 0
33 -126 0
-5 -33 126 0
c gate 127 6 34 0
6 -127 0
34 -127 0
-6 -34 127 0
c gate 128 -126 -127 0
-126 -128 0
-127 -128 0
126 127 128 0
c gate 129 125 -128 0
125 -129 0
-128 -129 0
-125 128 129 0
c gate 130 7 35 0
7 -130 0
35 -130 0
-7 -35 130 0
c gate 131 8 36 0
8 -131 0
36 -131 0
-8 -36 131 0
c gate 132 -130 -131 0
-130 -132 0
-131 -132 0
130 131 132 0
c gate 133 -129 132 0
-129 -133 0
132 -133 0
129 -132 133 0
c gate 134 -122 -133 0
-122 -134 0
-133 -134 0
122 133 134 0
c gate 135 -121 -134 0
-121 -135 0
-134 -135 0
121 134 135 0
c gate 136 -9 -37 0
-9 -136 0
-37 -136 0
9 37 136 0
c gate 137 -10 -38 0
-10 -137 0
-38 -137 0
10 38 137 0
c gate 138 -136 -137 0
-136 -138 0
-137 -138 0
136 137 138 0
c gate 139 -135 138 0
-135 -139 0
138 -139 0
135 -138 139 0
c gate 140 -120 -139 0
-120 -140 0
-139 -140 0
120 139 140 0
c gate 141 -119 -140 0
-119 -141 0
-140 -141 0
119 140 141 0
c gate 142 -118 -141 0
-118 -142 0
-141 -142 0
118 141 142 0
c gate 143 2 30 0
2 -143 0
30 -143 0
-2 -30 143 0
c gate 144 1 29 0
1 -144 0
29 -144 0
-1 -29 144 0
c gate 145 -143 -144 0
-143 -145 0
-144 -145 0
143 144 145 0
c gate 146 -3 -31 0
-3 -146 0
-31 -146 0
3 31 146 0
c gate 147 -2 -30 0
-2 -147 0
-30 -147 0
2 30 147 0
c gate 148 -146 -147 0
-146 -148 0
-147 -148 0
146 147 148 0
c gate 149 -145 148 0
-145 -149 0
148 -149 0
145 -148 149 0
c gate 150 3 31 0
3 -150 0
31 -150 0
-3 -31 150 0
c gate 151 4 32 0
4 -151 0
32 -151 0
-4 -32 151 0
c gate 152 -150 -151 0
-150 -152 0
-151 -152 0
150 151 152 0
c gate 153 -149 152 0
-149 -153 0
152 -153 0
149 -152 153 0
c gate 154 -5 -33 0
-5 -154 0
-33 -154 0
5 33 154 0
c gate 155 -4 -32 0
-4 -155 0
-32 -155 0
4 32 155 0
c gate 156 -122 -155 0
-122 -156 0
-155 -156 0
122 155 156 0
c gate 157 -154 156 0
-154 -157 0
156 -157 0
154 -156 157 0
c gate 158 125 157 0
125 -158 0
157 -158 0
-125 -157 158 0
c gate 159 -153 158 0
-153 -159 0
158 -159 0
153 -158 159 0
c gate 160 133 159 0
133 -160 0
159 -160 0
-133 -159 160 0
c gate 161 -121 -136 0
-121 -161 0
-136 -161 0
121 136 161 0
c gate 162 -119 -137 0
-119 -162 0
-137 -162 0
119 137 162 0
c gate 163 161 162 0
161 -163 0
162 -163 0
-161 -162 163 0
c gate 164 160 163 0
160 -164 0
163 -164 0
-160 -163 164 0
c gate 165 142 -164 0
142 -165 0
-164 -165 0
-142 164 165 0
c gate 166 -117 165 0
-117 -166 0
165 -166 0
117 -165 166 0
c gate 167 -13 -41 0
-13 -167 0
-41 -167 0
13 41 167 0
c gate 168 -114 -167 0
-114 -168 0
-167 -168 0
114 167 168 0
c gate 169 -12 -40 0
-12 -169 0
-40 -169 0
12 40 169 0
c gate 170 168 -169 0
168 -170 0
-169 -170 0
-168 169 170 0
c gate 171 -166 170 0
-166 -171 0
170 -171 0
166 -170 171 0
c gate 172 116 -171 0
116 -172 0
-171 -172 0
-116 171 172 0
c gate 173 -90 172 0
-90 -173 0
172 -173 0
90 -172 173 0
c gate 174 96 173 0
96 -174 0
173 -174 0
-96 -173 174 0
c gate 175 -117 -169 0
-117 -175 0
-169 -175 0
117 169 175 0
c gate 176 -118 162 0
-118 -176 0
162 -176 0
118 -162 176 0
c gate 177 175 176 0
175 -177 0
176 -177 0
-175 -176 177 0
c gate 178 165 177 0
165 -178 0
177 -178 0
-165 -177 178 0
c gate 179 -171 -178 0
-171 -179 0
-178 -179 0
171 178 179 0
c gate 180 118 -169 0
118 -180 0
-169 -180 0
-118 169 180 0
c gate 181 -117 -180 0
-117 -181 0
-180 -181 0
117 180 181 0
c gate 182 -177 181 0
-177 -182 0
181 -182 0
177 -181 182 0
c gate 183 168 -182 0
168 -183 0
-182 -183 0
-168 182 183 0
c gate 184 -179 -183 0
-179 -184 0
-183 -184 0
179 183 184 0
c gate 185 -178 -184 0
-178 -185 0
-184 -185 0
178 184 185 0
c gate 186 -120 161 0
-120 -186 0
161 -186 0
120 -161 186 0
c gate 187 176 186 0
176 -187 0
186 -187 0
-176 -186 187 0
c gate 188 160 -187 0
160 -188 0
-187 -188 0
-160 187 188 0
c gate 189 164 -175 0
164 -189 0
-175 -189 0
-164 175 189 0
c gate 190 142 189 0
142 -190 0
189 -190 0
-142 -189 190 0
c gate 191 -188 -190 0
-188 -191 0
-190 -191 0
188 190 191 0
c gate 192 160 191 0
160 -192 0
191 -192 0
-160 -191 192 0
c gate 193 185 -192 0
185 -193 0
-192 -193 0
-185 192 193 0
c gate 194 -94 -172 0
-94 -194 0
-172 -194 0
94 172 194 0
c gate 195 116 -183 0
116 -195 0
-183 -195 0
-116 183 195 0
c gate 196 95 -195 0
95 -196 0
-195 -196 0
-95 195 196 0
c gate 197 -194 -196 0
-194 -197 0
-196 -197 0
194 196 197 0
c gate 198 -93 195 0
-93 -198 0
195 -198 0
93 -195 198 0
c gate 199 194 -198 0
194 -199 0
-198 -199 0
-194 198 199 0
c gate 200 92 -199 0
92 -200 0
-199 -200 0
-92 199 200 0
c gate 201 -197 200 0
-197 -201 0
200 -201 0
197 -200 201 0
c gate 202 -193 -201 0
-193 -202 0
-201 -202 0
193 201 202 0
c gate 203 -174 -202 0
-174 -203 0
-202 -203 0
174 202 203 0
c gate 204 -113 -203 0
-113 -204 0
-203 -204 0
113 203 204 0
c gate 205 113 -173 0
113 -205 0
-173 -205 0
-113 173 205 0
c gate 206 -100 107 0
-100 -206 0
107 -206 0
100 -107 206 0
c gate 207 110 -206 0
110 -207 0
-206 -207 0
-110 206 207 0
c gate 208 -101 -207 0
-101 -208 0
-207 -208 0
101 207 208 0
c gate 209 -21 -49 0
-21 -209 0
-49 -209 0
21 49 209 0
c gate 210 -57 -209 0
-57 -210 0
-209 -210 0
57 209 210 0
c gate 211 63 210 0
63 -211 0
210 -211 0
-63 -210 211 0
c gate 212 60 66 0
60 -212 0
66 -212 0
-60 -66 212 0
c gate 213 211 212 0
211 -213 0
212 -213 0
-211 -212 213 0
c gate 214 -208 -213 0
-208 -214 0
-213 -214 0
208 213 214 0
c gate 215 205 -214 0
205 -215 0
-214 -215 0
-205 214 215 0
c gate 216 -204 -215 0
-204 -216 0
-215 -216 0
204 215 216 0
c gate 217 85 216 0
85 -217 0
216 -217 0
-85 -216 217 0
c PO
217 0
